HUN,8,6,905
5,28,4,24,2,23,3,22,1,24,0,21
3,30,0,24,1,21,4,30,5,21,2,29
2,23,3,24,5,21,1,23,0,26,4,30
3,26,0,23,4,26,2,28,5,26,1,29
3,26,0,30,1,29,2,28,4,29,5,22
4,24,0,21,3,27,2,23,5,27,1,22
3,22,4,23,2,25,1,21,0,23,5,24
4,25,3,25,1,29,2,24,0,29,5,24
